(set-logic ALL)
(declare-const BAV1 Bool)
(declare-const BAV2 Bool)
(declare-const BAV3 Bool)
(declare-const BAV4 Bool)
(declare-const BAV5 Bool)
(declare-const BAV6 Bool)
(declare-const BAV7 Bool)
(declare-const BAV8 Bool)
(declare-const BAV9 Bool)
(declare-const BAV10 Bool)
(declare-const BAV11 Bool)
(declare-const BAV12 Bool)
(declare-const BAV13 Bool)
(declare-const GEN25 Int)
(declare-const GEN24 Int)
(declare-const GEN23 Int)
(declare-const GEN22 Int)
(declare-const GEN21 Int)
(declare-const GEN20 Int)
(declare-const GEN19 Int)
(declare-const GEN18 Int)
(declare-const GEN17 Int)
(declare-const GEN16 Int)
(declare-const GEN15 Int)
(declare-const GEN14 Int)
(declare-const GEN13 Int)
(declare-const GEN12 Int)
(declare-const GEN11 Int)
(declare-const GEN10 Int)
(declare-const GEN9 Int)
(declare-const GEN8 Int)
(declare-const GEN7 Int)
(declare-const GEN6 Int)
(declare-const GEN5 Int)
(declare-const GEN4 Int)
(declare-const GEN3 Int)
(declare-const GEN2 Int)
(declare-const GEN1 Int)
(declare-fun a () Real)
(declare-fun b () Real)
(declare-fun x () Real)
(declare-fun y () Real)
(assert (and (= (- (- (* GEN1 (* x x)) (* GEN2 x)) a) GEN3) (= (- (+ (- (- (- (* x (* x x)) (* x x)) (* a x)) (* GEN4 b)) a) GEN5) GEN6) (= (- (- (* GEN7 (* y y)) (* GEN8 y)) a) GEN9) (= (+ (- (- (- (* y (* y y)) (* y y)) (* a y)) a) GEN10) GEN11) (<= GEN12 (* GEN13 a)) (<= (* GEN14 a) GEN15) (<= (- GEN16 GEN17) (* GEN18 b)) (<= (* GEN19 b) GEN20) (<= (- GEN21 GEN22) x) (<= x GEN23) (<= GEN24 y) (<= y GEN25)))
(eliminate-quantifiers (exists y x))
(exit)
(assert (= BAV1 (and (= (- (- (* GEN1 (* x x)) (* GEN2 x)) a) GEN3) (= (- (+ (- (- (- (* x (* x x)) (* x x)) (* a x)) (* GEN4 b)) a) GEN5) GEN6) (= (- (- (* GEN7 (* y y)) (* GEN8 y)) a) GEN9) (= (+ (- (- (- (* y (* y y)) (* y y)) (* a y)) a) GEN10) GEN11) (<= GEN12 (* GEN13 a)) (<= (* GEN14 a) GEN15) (<= (- GEN16 GEN17) (* GEN18 b)) (<= (* GEN19 b) GEN20) (<= (- GEN21 GEN22) x) (<= x GEN23) (<= GEN24 y) (<= y GEN25))))
(assert (= BAV2 (= (- (- (* GEN1 (* x x)) (* GEN2 x)) a) GEN3)))
(assert (= BAV3 (= (- (+ (- (- (- (* x (* x x)) (* x x)) (* a x)) (* GEN4 b)) a) GEN5) GEN6)))
(assert (= BAV4 (= (- (- (* GEN7 (* y y)) (* GEN8 y)) a) GEN9)))
(assert (= BAV5 (= (+ (- (- (- (* y (* y y)) (* y y)) (* a y)) a) GEN10) GEN11)))
(assert (= BAV6 (<= GEN12 (* GEN13 a))))
(assert (= BAV7 (<= (* GEN14 a) GEN15)))
(assert (= BAV8 (<= (- GEN16 GEN17) (* GEN18 b))))
(assert (= BAV9 (<= (* GEN19 b) GEN20)))
(assert (= BAV10 (<= (- GEN21 GEN22) x)))
(assert (= BAV11 (<= x GEN23)))
(assert (= BAV12 (<= GEN24 y)))
(assert (= BAV13 (<= y GEN25)))